TCS_Benchmarks/redos_fix/snort1_output_distinct_2673_2672_0_0.txt
([^\n\r]*)(\s+)
([^\n\r]*)([vV][bB])(\s+)